problems/prob129/s2ring05.param
language Essence 1.3
letting nnodes be 10
letting nrings be 6
letting capacity be 5
letting demand be {{1, 3},
{1, 7},
{2, 5},
{2, 6},
{3, 5},
{3, 8},
{4, 6},
{4, 7},
{5, 6},
{5, 8},
{6, 9},
{6, 10},
{7, 9},
{7, 10},
{8, 10}}
