problems/csplib-prob056/params/given/s2ring05.txt
10 6 25 5 15
1 1 2 2 3 3 4 4 5 5 6  6 7  7  8 
3 7 5 6 5 8 6 7 6 8 9 10 9 10 10 
3 3 5 3 1 2 5 5 2 3 2 7 20 5 2 
